Results/Experiment 1 Results/New Benchmark/RES_20/output_p1_0.25_p2_0.00_n_20_17.txt
solutions: 0 nodes: 0  modelTime: 132  solveTime: 8  totalTime: 141  modelSize: 7358  readTime: 1 matchingSize: 0
