Results/Experiment 2 Results/New Benchmark/output_p1_0.25_p2_0.00_n_20_17.lp
clingo version 5.4.0
Reading from tempSRTISolver.lp ...
Solving...
Answer: 1
matched(3,2) matched(5,4) matched(4,5) matched(6,7) matched(1,8) matched(9,12) matched(19,15) matched(16,17) matched(14,18) matched(13,20) matched(20,13) matched(2,3) matched(7,6) matched(8,1) matched(11,10) matched(12,9) matched(10,11) matched(18,14) matched(17,16) matched(15,19)
Optimization: 107
Answer: 2
matched(4,2) matched(2,4) matched(3,5) matched(6,7) matched(1,8) matched(9,12) matched(19,15) matched(16,17) matched(14,18) matched(13,20) matched(20,13) matched(5,3) matched(7,6) matched(8,1) matched(11,10) matched(12,9) matched(10,11) matched(18,14) matched(17,16) matched(15,19)
Optimization: 105
Answer: 3
matched(4,2) matched(2,4) matched(3,5) matched(6,7) matched(1,8) matched(11,12) matched(19,15) matched(16,17) matched(14,18) matched(13,20) matched(20,13) matched(5,3) matched(7,6) matched(8,1) matched(9,10) matched(10,9) matched(12,11) matched(18,14) matched(17,16) matched(15,19)
Optimization: 102
OPTIMUM FOUND

Models       : 3
  Optimum    : yes
Optimization : 102
Calls        : 1
Time         : 0.035s (Solving: 0.00s 1st Model: 0.00s Unsat: 0.00s)
CPU Time     : 0.035s
